c --- [ banner ] -------------------------------------------------------------
c 
c CaDiCaL Radically Simplified CDCL SAT Solver
c Copyright (c) 2016-2021 A. Biere, M. Fleury, N. Froleyks
c 
c Version 1.5.2 9c38a080b32c28d805e8e6ca21849856b0cda605
c g++ (Ubuntu 7.5.0-3ubuntu1~18.04) 7.5.0 -Wall -Wextra -O3 -DNDEBUG
c Wed Feb 16 23:15:36 EST 2022 Linux fac-vanhoeve01 5.4.0-99-generic x86_64
c 
c --- [ parsing input ] ------------------------------------------------------
c 
c reading DIMACS file from '<stdin>' (use '-h' for a list of common options)
c found 'p cnf 2692 7976' header
c parsed 7976 clauses in 0.00 seconds process time
c disconnecting from '<stdin>'
c after reading 106558 bytes 0.1 MB
c 
c --- [ options ] ------------------------------------------------------------
c 
c all options are set to their default value
c 
c --- [ solving ] ------------------------------------------------------------
c 
c time measured in process time since initialization
c 
c  seconds  reductions  redundant irredundant
c         MB    restarts       trail    variables
c          level   conflicts       glue      remaining
c 
c *  0.00  5  0 0   0    0    0  0% 0 7974 2618 97%
c {  0.01  5  0 0   0    0    0  0% 0 7974 2618 97%
c -  0.02  5 75 1  41  300  286 71% 9 7902 2618 97%
c -  0.06  6 40 2  94  900  712 84% 9 7902 2618 97%
c }  0.06  6 39 2  99 1000  805 84% 9 7902 2618 97%
c [  0.06  6  0 2  99 1000  805  0% 0 7902 2618 97%
c O  0.06  6 24 2  99 1002  807 93% 12 7902 2618 97%
c -  0.10  6 17 3  99 1800  890 92% 13 7902 2618 97%
c ]  0.17  6 16 3 100 3000 1500 92% 13 7902 2618 97%
c {  0.17  6 39 3 100 3000 1500 84% 9 7902 2618 97%
c -  0.17  6 39 4 100 3000 1019 84% 9 7902 2618 97%
c F  0.17  6 38 4 100 3007 1025 84% 9 7902 2618 97%
c s  0.18  6 35 4 103 3214 1216 84% 9 7902 2618 97%
c e  0.21  6 35 4 103 3214   42 84% 9 5686 885 33%
c s  0.21  6 35 4 103 3214   36 84% 9 5686 885 33%
c -  0.27  6 29 5 227 4501 1234 84% 10 5686 885 33%
c #  0.34  6 25 5 282 6008 2534 81% 10 5686 885 33%
c -  0.36  6 25 6 322 6302 2101 81% 10 5686 885 33%
c }  0.39  6 24 6 364 7000 2758 82% 10 5686 885 33%
c [  0.39  6 16 6 364 7000 2758 280% 13 5686 885 33%
c 
c  seconds  reductions  redundant   irredundant
c         MB    restarts       trail      variables
c          level   conflicts        glue      remaining
c 
c -  0.45  6 19 7 365 8402 2801 201% 14 5686 885 33%
c I  0.53  6 20 7 366 10009 4207 164% 15 5686 885 33%
c -  0.58  7 21 8 367 10802 3258 153% 15 5686 885 33%
c -  0.73  7 23 9 369 13503 3367 132% 16 5686 885 33%
c s  0.76  7 23 9 369 13951 3733 129% 16 5686 885 33%
c w  0.77  7 23 9 369 13951 3733 129% 16 5686 885 33%
c s  0.77  7 23 9 369 13951 3732 129% 16 5686 885 33%
c ^  0.77  7 23 9 369 13951 3732 129% 16 5686 885 33%
c ]  0.83  7 23 9 369 15001 4570 125% 16 5686 885 33%
c {  0.83  7 24 9 369 15001 4570 82% 10 5686 885 33%
c 2  0.83  7 24 9 369 15005 4573 82% 10 5686 885 33%
c B  0.83  7 24 9 370 15010 4578 82% 10 5686 885 33%
c -  0.90  7 24 10 452 16504 3951 82% 10 5686 885 33%
c -  1.06  7 23 11 710 19804 4484 83% 10 5686 885 33%
c W  1.12  7 23 11 718 21012 5614 83% 10 5686 885 33%
c -  1.23  7 22 12 754 23405 5095 84% 10 5686 885 33%
c -  1.42  7 22 13 953 27306 5824 84% 10 5686 885 33%
c F  1.46  7 22 13 953 28014 6450 84% 10 5686 885 33%
c p  1.56  7 21 13 1087 30005 8161 83% 10 5686 885 33%
c s  1.57  7 21 13 1087 30053 8185 83% 10 5686 885 33%
c 
c  seconds  reductions     redundant  irredundant
c         MB     restarts         trail     variables
c          level      conflicts       glue      remaining
c 
c s  1.60  7 21 13 1087 30053 8184 83% 10 5686 885 33%
c ^  1.60  7 21 13 1087 30053 8184 83% 10 5686 885 33%
c }  1.64  7 21 13 1123 31002 9029 83% 10 5686 885 33%
c [  1.64  7 23 13 1123 31002 9029 125% 16 5686 885 33%
c -  1.67  7 23 14 1123 31507 6385 123% 16 5686 885 33%
c -  1.89  7 23 15 1126 36007 6492 112% 16 5686 885 33%
c B  1.89  7 23 15 1126 36015 6500 112% 16 5686 885 33%
c -  2.15  7 29 16 1129 40807 6450 106% 19 5686 885 33%
c W  2.42  7 31 16 1130 45016 9887 103% 21 5686 885 33%
c -  2.49  8 31 17 1130 45907 6581 102% 21 5686 885 33%
c p  2.76  8 32 17 1131 50008 9940 100% 22 5686 885 33%
c -  2.86  8 32 18 1131 51307 7338 99% 22 5686 885 33%
c s  2.88  8 32 18 1131 51523 7481 99% 22 5686 885 33%
c s  2.90  8 32 18 1131 51523 7481 99% 22 5686 885 33%
c ^  2.90  8 32 18 1131 51523 7481 99% 22 5686 885 33%
c O  3.12  8 32 18 1132 55017 10213 98% 22 5686 885 33%
c -  3.22  8 31 19 1134 57007 7212 97% 22 5686 885 33%
c ]  3.51  8 29 19 1138 63007 11368 96% 21 5686 885 33%
c {  3.51  8 21 19 1138 63007 11368 83% 10 5686 885 33%
c -  3.52  8 21 20 1138 63007 6918 83% 10 5686 885 33%
c 
c  seconds  reductions     redundant  irredundant
c         MB     restarts         trail     variables
c          level      conflicts       glue      remaining
c 
c B  3.67  8 21 20 1344 66018 9723 83% 10 5686 885 33%
c -  3.83  8 21 21 1576 69307 8548 83% 10 5686 885 33%
c p  4.11  8 20 21 1815 75009 13733 83% 10 5686 885 33%
c -  4.16  8 20 22 1823 75907 9715 83% 10 5686 885 33%
c W  4.28  8 20 22 1881 78022 11605 82% 10 5686 885 33%
c s  4.32  8 20 22 1937 78361 11902 82% 10 5686 885 33%
c w  4.33  8 20 22 1937 78361 11897 82% 10 5686 885 33%
c s  4.36  8 20 22 1937 78361 11896 82% 10 5686 885 33%
c ^  4.36  8 20 22 1937 78361 11896 82% 10 5686 885 33%
c -  4.58  9 20 23 2111 82807 10662 82% 10 5686 885 33%
c -  4.95  9 20 24 2503 90008 11193 82% 10 5686 885 33%
c #  5.02  9 20 24 2591 91023 12135 82% 10 5686 885 33%
c -  5.35  9 19 25 2837 97508 12037 83% 10 5686 885 33%
c p  5.75  9 19 25 3196 105009 18761 82% 10 5686 885 33%
c B  5.76  9 19 25 3198 105024 18775 82% 10 5686 885 33%
c -  5.78 10 19 26 3227 105308 12615 82% 10 5686 885 33%
c s  6.10 10 19 26 3652 110565 17366 82% 10 5686 885 33%
c w  6.12 10 19 26 3652 110565 17358 82% 10 5686 885 33%
c e  6.14 10 19 26 3652 110565 3641 82% 10 8122 567 21%
c s  6.15 10 19 26 3652 110565 3641 82% 10 8122 567 21%
c 
c  seconds  reductions      redundant  irredundant
c         MB     restarts          trail     variables
c          level      conflicts        glue      remaining
c 
c ^  6.15 10 19 26 3652 110565 3641 82% 10 8122 567 21%
c -  6.28  8 19 27 3780 113408 5009 83% 10 8122 567 21%
c W  6.66  8 19 27 4386 120025 11016 81% 10 8122 567 21%
c -  6.77 10 19 28 4547 121811 10156 81% 10 8122 567 21%
c }  7.03 10 19 28 4834 127008 14808 81% 10 8122 567 21%
c [  7.03 10 29 28 4834 127008 14808 149% 21 8122 567 21%
c -  7.23 10 28 29 4834 130511 12648 144% 20 8122 567 21%
c B  7.56 10 29 29 4839 136026 17778 136% 19 8122 567 21%
c -  7.77 10 29 30 4841 139513 13758 132% 20 8122 567 21%
c p  7.81 10 29 30 4841 140010 14221 132% 20 8122 567 21%
c -  8.37 10 28 31 4842 148813 12709 124% 20 8122 567 21%
c W  8.71 10 28 31 4843 153029 16519 121% 19 8122 567 21%
c -  9.03 10 29 32 4843 158413 13413 118% 19 8122 567 21%
c s  9.44 10 29 32 4843 164331 18663 115% 19 8122 567 21%
c w  9.47 10 29 32 4843 164331 18659 115% 19 8122 567 21%
c s  9.50 10 29 32 4843 164331 18656 115% 19 8122 567 21%
c -  9.75 11 29 33 4844 168314 14181 113% 19 8122 567 21%
c I  9.89 11 28 33 4846 171032 16183 112% 19 8122 567 21%
c - 10.42 13 29 34 4850 178514 13960 109% 19 8122 567 21%
c p 10.53 13 29 34 4850 180010 15283 108% 19 8122 567 21%
c 
c  seconds  reductions       redundant   irredundant
c         MB     restarts           trail      variables
c          level      conflicts          glue      remaining
c 
c - 11.21 11 28 35 4857 189015 14276 105% 19 8122 567 21%
c B 11.28 11 28 35 4857 190033 15054 105% 19 8122 567 21%
c - 11.98 14 29 36 4858 199816 15112 103% 20 8122 567 21%
c W 12.88 14 29 36 4865 210035 23205 101% 20 8122 567 21%
c - 12.98 13 29 37 4865 210916 14801 101% 20 8122 567 21%
c - 13.83 12 28 38 4872 222318 15091 99% 19 8122 567 21%
c p 14.03 12 28 38 4872 225011 17331 99% 19 8122 567 21%
c O 14.50 12 27 38 4873 231036 21929 98% 19 8122 567 21%
c - 14.69 12 27 39 4873 234018 14952 97% 19 8122 567 21%
c - 15.42 12 26 40 4874 246018 14126 96% 19 8122 567 21%
c B 15.84 12 26 40 4875 253037 19089 95% 19 8122 567 21%
c ] 15.96 12 26 40 4875 255008 20757 95% 19 8122 567 21%
c { 15.96 12 19 40 4875 255008 20757 81% 10 8122 567 21%
c - 16.18 13 19 41 5191 258318 15785 82% 10 8122 567 21%
c - 16.93 13 19 42 6046 270918 18156 83% 10 8122 567 21%
c p 17.19 13 19 42 6272 275011 21825 82% 10 8122 567 21%
c F 17.27 13 19 42 6417 276038 22795 82% 10 8122 567 21%
c - 17.84 13 19 43 7094 283818 20398 83% 10 8122 567 21%
c - 18.69 15 19 44 7898 297020 21648 83% 10 8122 567 21%
c B 18.90 15 19 44 8221 300039 24477 83% 10 8122 567 21%
c 
c  seconds  reductions       redundant  irredundant
c         MB     restarts           trail     variables
c          level      conflicts         glue      remaining
c 
c - 19.69 15 19 45 9210 310520 22480 82% 10 8122 567 21%
c - 20.70 15 19 46 10467 324321 22983 82% 10 8122 567 21%
c W 20.84 15 19 46 10566 325040 23661 82% 10 8122 567 21%
c p 21.18 15 19 46 10912 330011 28289 82% 10 8122 567 21%
c - 21.85 16 19 47 11632 338424 23995 82% 10 8122 567 21%
c # 22.61 16 19 47 12163 351041 35245 81% 10 8122 567 21%
c - 22.76 16 19 48 12211 352824 24328 81% 10 8122 567 21%
c - 23.83 16 19 49 13327 367525 25811 81% 10 8122 567 21%
c B 24.56 16 19 49 13952 378042 35097 81% 10 8122 567 21%
c - 24.93 16 19 50 14200 382526 26148 81% 10 8122 567 21%
c p 25.55 16 19 50 14903 390014 33079 81% 10 8122 562 21%
c s 25.61 16 19 50 14903 390014 33007 81% 10 8122 562 21%
c v 25.64 16 19 50 14903 390014 33007 81% 10 8073 562 21%
c w 25.69 16 19 50 14903 390014 32998 81% 10 8073 562 21%
c s 25.75 16 19 50 14903 390014 32993 81% 10 8048 562 21%
c - 26.42 16 19 51 15492 397829 27931 81% 10 8048 562 21%
c W 27.19 16 19 51 16152 406044 35474 81% 10 8048 562 21%
c - 27.88 16 19 52 16907 413429 28576 81% 10 8048 562 21%
c - 29.13 19 19 53 18116 429329 28831 81% 10 8048 562 21%
c F 29.57 13 19 53 18578 435046 34082 81% 10 8048 562 21%
c 
c  seconds  reductions        redundant  irredundant
c         MB      restarts           trail     variables
c          level       conflicts         glue      remaining
c 
c - 30.47 14 19 54 19519 445530 29984 82% 10 8048 562 21%
c p 31.21 14 19 54 20108 455014 38459 82% 10 8048 562 21%
c s 31.67 14 19 54 20538 459135 42283 82% 10 8048 562 21%
c w 31.74 14 19 54 20538 459135 42278 82% 10 8048 562 21%
c s 31.81 14 19 54 20538 459135 42273 82% 10 8048 562 21%
c - 32.12 14 19 55 20814 462032 30724 82% 10 8048 562 21%
c B 32.35 14 19 55 21058 465049 33517 82% 10 8048 562 21%
c - 33.49 14 19 56 21914 478835 31607 82% 10 8048 562 21%
c - 34.91 14 19 57 23066 495935 32009 82% 10 8048 562 21%
c W 35.05 14 19 57 23074 496050 32121 82% 10 8048 562 21%
c } 36.23 14 19 57 23952 511008 45227 82% 10 8048 562 21%
c [ 36.23 14 26 57 23952 511008 45227 95% 19 8048 562 21%
c - 36.41 15 26 58 23952 513335 32601 95% 19 8048 562 21%
c p 37.29 15 25 58 23952 525014 43489 94% 18 8048 562 21%
c W 37.69 15 26 58 23952 528053 46311 93% 18 8048 562 21%
c - 37.91 15 26 59 23952 531036 32502 93% 18 8048 562 21%
c - 39.22 14 25 60 23959 549038 27708 92% 18 8048 562 21%
c I 40.08 14 25 60 23966 561055 37413 92% 18 8048 562 21%
c - 40.57 17 25 61 23967 567338 29171 91% 18 8048 562 21%
c - 42.09 20 26 62 23975 585939 30307 91% 18 8048 562 21%
c 
c  seconds  reductions        redundant  irredundant
c         MB      restarts           trail     variables
c          level       conflicts         glue      remaining
c 
c B 42.92 20 26 62 23981 595058 37702 91% 18 8048 562 21%
c p 43.36 20 27 62 23982 600015 42142 91% 19 8048 562 21%
c - 43.76 17 27 63 23982 604841 30457 90% 19 8048 562 21%
c - 45.39 18 26 64 23984 624044 30378 90% 18 8048 562 21%
c W 46.05 18 26 64 23989 630059 34931 90% 18 8048 562 21%
c - 47.34 18 25 65 23996 643547 30576 90% 18 8048 562 21%
c - 49.07 18 25 66 24004 663348 31519 89% 18 8048 562 21%
c O 49.29 18 25 66 24005 666060 33902 89% 18 8048 562 21%
c p 50.28 18 24 66 24012 680015 43327 89% 18 8048 562 21%
c - 50.57 18 24 67 24013 683448 28737 89% 18 8048 562 21%
c B 52.03 18 23 67 24014 703063 43126 88% 17 8048 562 21%
c - 52.11 18 23 68 24014 703848 30151 88% 17 8048 562 21%
c - 53.56 19 23 69 24015 724548 30826 88% 17 8048 562 21%
c W 55.11 19 23 69 24016 741064 43880 88% 17 8048 562 21%
c - 55.55 19 23 70 24016 745549 32287 88% 17 8048 562 21%
c p 57.35 19 22 70 24016 765015 48015 87% 17 8048 562 21%
c - 57.57 19 22 71 24016 766849 32892 87% 17 8048 562 21%
c I 58.53 19 22 71 24016 780065 41965 87% 16 8048 562 21%
c - 59.23 19 23 72 24016 788453 32631 87% 16 8048 562 21%
c - 61.23 24 25 73 24020 810353 36193 88% 17 8048 562 21%
c 
c  seconds  reductions        redundant  irredundant
c         MB      restarts           trail     variables
c          level       conflicts         glue      remaining
c 
c B 62.17 24 26 73 24025 820066 45057 88% 18 8048 562 21%
c - 63.29 23 27 74 24031 832553 36490 88% 19 8048 562 21%
c p 65.54 23 28 74 24041 855016 56044 88% 19 8048 562 21%
c - 65.59 20 28 75 24041 855054 36288 88% 19 8048 562 21%
c s 65.66 20 28 75 24041 855054 36207 88% 19 8048 562 21%
c w 65.76 20 28 75 24041 855054 36188 88% 19 8048 562 21%
c W 66.50 20 28 75 24045 861067 40665 88% 19 8048 562 21%
c - 68.11 24 26 76 24047 877854 34913 88% 19 8048 562 21%
c - 70.62 24 26 77 24054 900954 37355 88% 18 8048 562 21%
c O 70.81 24 25 77 24056 903069 39278 89% 18 8048 562 21%
c - 72.75 24 25 78 24065 924356 36464 88% 18 8048 562 21%
c B 75.31 24 25 78 24076 946070 54923 88% 18 8048 562 21%
c - 75.54 24 25 79 24077 948056 38192 88% 18 8048 562 21%
c p 75.73 24 24 79 24077 950016 39947 88% 18 8048 562 21%
c - 77.56 24 23 80 24079 972057 35807 88% 17 8048 562 21%
c W 79.44 24 23 80 24079 990072 50578 88% 17 8048 562 21%
c - 80.18 24 22 81 24079 996358 38060 88% 17 8048 562 21%
c - 82.86 24 22 82 24089 1020958 39644 88% 16 8048 562 21%
c ] 83.07 24 22 82 24091 1023009 41346 88% 16 8048 562 21%
c { 83.07 24 19 82 24091 1023009 41346 82% 10 8048 562 21%
c 
c  seconds  reductions         redundant  irredundant
c         MB      restarts            trail     variables
c          level        conflicts         glue      remaining
c 
c # 84.23 24 18 82 24952 1035075 52004 81% 10 8048 562 21%
c - 85.16 24 18 83 25332 1045862 41104 81% 10 8048 562 21%
c p 85.60 24 18 83 25748 1050017 44834 81% 10 8048 562 21%
c - 87.68 24 18 84 27253 1071065 45076 81% 10 8048 562 21%
c B 88.61 24 18 84 27970 1081078 54120 81% 10 8048 562 21%
c - 90.20 26 18 85 28784 1096565 45782 80% 10 8048 562 21%
c - 92.92 26 18 86 30816 1122365 48275 80% 10 8048 562 21%
c W 93.74 26 18 86 31309 1128079 53426 81% 10 8048 562 21%
c - 96.03 26 18 87 32793 1148468 48536 81% 10 8048 562 21%
c p 96.59 26 18 87 33081 1155017 54218 81% 10 8048 562 21%
c - 98.83 27 18 88 34675 1174870 49694 81% 10 8048 562 21%
c F 98.90 27 18 88 34675 1176080 50558 81% 10 8048 562 21%
c - 101.67 27 18 89 36413 1201570 50835 81% 10 8048 562 21%
c B 104.16 27 18 89 38065 1225081 71205 81% 10 8048 562 21%
c - 104.49 27 17 90 38130 1228572 51422 81% 10 8048 562 21%
c - 107.39 27 17 91 40006 1255873 51969 80% 10 8048 562 21%
c p 108.37 27 17 91 40726 1265018 60179 81% 10 8048 562 21%
c W 109.93 27 17 91 41563 1275082 68942 81% 10 8048 562 21%
c - 111.02 27 17 92 42246 1283473 54021 81% 10 8048 562 21%
c s 111.17 27 17 92 42246 1283473 53849 81% 10 8048 562 21%
c 
c  seconds   reductions         redundant  irredundant
c          MB      restarts            trail     variables
c           level        conflicts         glue      remaining
c 
c w 111.32 27 17 92 42246 1283473 53814 81% 10 8048 562 21%
c - 114.54 28 17 93 44241 1311373 54868 81% 10 8048 562 21%
c # 116.07 28 17 93 45298 1326084 67582 82% 10 8048 562 21%
c - 117.78 28 17 94 46193 1339573 55669 82% 10 8048 562 21%
c - 120.90 28 17 95 47943 1368073 54950 82% 10 8048 562 21%
c B 121.85 28 17 95 48479 1378085 63648 82% 10 8048 562 21%
c p 122.08 28 17 95 48593 1380019 65358 82% 10 8048 562 21%
c - 124.13 28 17 96 49641 1396873 56451 82% 10 8048 562 21%
c - 127.64 28 17 97 51733 1425973 58503 82% 10 8048 562 21%
c W 128.54 28 17 97 52097 1431089 63145 82% 10 8048 562 21%
c - 131.95 28 17 98 54295 1455376 60292 82% 10 8048 562 21%
c - 135.64 29 17 99 56380 1485076 60466 82% 10 8048 562 21%
c F 135.65 29 17 99 56380 1485090 60479 82% 10 8048 562 21%
c p 137.41 29 17 99 57476 1500019 73799 83% 10 8048 560 21%
c s 137.65 29 17 99 57476 1500019 73685 83% 10 8038 560 21%
c - 139.94 29 17 100 58768 1515077 62037 82% 10 8038 560 21%
c B 143.03 29 17 100 60513 1540095 84325 82% 10 8038 560 21%
c - 143.83 29 17 101 60908 1545377 62951 82% 10 8038 560 21%
c - 147.87 29 17 102 63089 1575977 64036 82% 10 8038 560 21%
c s 149.17 29 17 102 63722 1584574 71551 82% 10 8022 560 21%
c 
c  seconds    reductions         redundant  irredundant
c          MB       restarts            trail     variables
c           level         conflicts         glue      remaining
c 
c w 149.37 29 17 102 63722 1584574 71549 82% 10 8022 560 21%
c s 149.63 29 17 102 63722 1584574 71539 82% 10 8022 560 21%
c W 151.48 29 17 102 64319 1596098 81791 82% 10 8022 560 21%
c - 153.26 29 17 103 65351 1606877 64701 83% 10 8022 560 21%
c p 155.30 29 17 103 66313 1625020 80291 83% 10 8022 560 21%
c - 157.12 29 17 104 67016 1638079 63898 83% 10 8022 560 21%
c # 158.89 29 17 104 68080 1653101 77171 83% 10 8022 560 21%
c - 161.21 29 17 105 69203 1669580 65223 82% 10 8022 560 21%
c - 165.38 22 17 106 71220 1701381 65996 82% 10 8022 560 21%
c B 166.59 22 17 106 71941 1711103 74567 82% 10 8022 560 21%
c - 169.64 23 17 107 73392 1733481 67251 82% 10 8022 560 21%
c p 172.69 23 17 107 74822 1755021 86097 82% 10 8022 560 21%
c - 174.25 23 17 108 75402 1765881 68441 82% 10 8022 560 21%
c W 175.20 23 17 108 75669 1770105 72214 82% 10 8022 560 21%
c - 179.36 24 17 109 77904 1798583 69673 82% 10 8022 560 21%
c F 183.34 24 17 109 79492 1830106 97013 82% 10 8022 560 21%
c - 183.76 24 17 110 79773 1831583 69517 82% 10 8022 560 21%
c - 188.15 24 17 111 81791 1864883 70337 83% 10 8022 560 21%
c p 191.30 24 17 111 83259 1890022 92043 82% 10 8022 559 21%
c s 191.60 25 17 111 83259 1890022 91971 82% 10 8022 559 21%
c 
c  seconds    reductions         redundant  irredundant
c          MB       restarts            trail     variables
c           level         conflicts         glue      remaining
c 
c v 191.66 25 17 111 83259 1890022 91971 82% 10 8011 559 21%
c w 191.84 25 17 111 83259 1890022 91965 82% 10 8011 559 21%
c s 192.14 25 17 111 83259 1890022 91959 82% 10 8006 559 21%
c B 192.34 25 17 111 83328 1891107 92937 82% 10 8006 559 21%
c - 193.80 29 17 112 84153 1898483 71342 82% 10 8006 559 21%
c - 198.23 29 17 113 85896 1932383 71858 83% 10 8006 559 21%
c W 201.26 29 17 113 86802 1953110 89911 83% 10 8006 559 21%
c - 203.44 34 17 114 87695 1966583 73174 83% 10 8006 559 21%
c s 207.04 25 17 114 89330 1989867 93493 83% 10 8006 559 21%
c w 207.18 25 17 114 89330 1989867 93492 83% 10 8006 559 21%
c s 207.50 25 17 114 89330 1989867 93489 83% 10 8006 559 21%
c - 209.16 25 17 115 89839 2001084 73673 82% 10 8006 559 21%
c # 211.29 25 17 115 91081 2016112 86832 82% 10 8006 559 21%
c p 213.22 25 17 115 91801 2030023 98565 83% 10 8006 559 21%
c - 213.98 25 16 116 91963 2035884 74474 82% 10 8006 559 21%
c } 215.33 25 16 116 92656 2047009 83834 81% 10 8006 559 21%
c [ 215.33 25 22 116 92656 2047009 83834 88% 16 8006 559 21%
c - 217.90 31 24 117 92666 2070984 75051 88% 17 8006 559 21%
c I 219.14 31 24 117 92671 2080113 82592 88% 17 8006 559 21%
c - 222.50 33 27 118 92675 2106386 74926 88% 18 8006 559 21%
c 
c  seconds    reductions         redundant  irredundant
c          MB       restarts            trail     variables
c           level         conflicts         glue      remaining
c 
c - 226.83 31 28 119 92690 2142086 68934 87% 19 8006 559 21%
c B 227.14 31 28 119 92690 2145114 71371 87% 19 8006 559 21%
c p 230.35 31 26 119 92705 2175024 96633 87% 18 8006 559 21%
c - 230.84 26 26 120 92705 2178086 67711 87% 18 8006 559 21%
c W 235.24 26 24 120 92707 2211118 94561 87% 17 8006 559 21%
c - 235.77 31 24 121 92707 2214387 67480 87% 17 8006 559 21%
c - 240.52 37 25 122 92708 2250988 69317 87% 18 8006 559 21%
c O 244.23 37 25 122 92708 2278122 92247 87% 18 8006 559 21%
c - 245.53 37 24 123 92708 2287888 69163 87% 18 8006 559 21%
c p 250.35 37 23 123 92709 2325025 98555 87% 17 8006 559 21%
c - 250.44 37 23 124 92709 2325089 67477 87% 17 8006 559 21%
c B 252.91 37 23 124 92709 2346123 83844 87% 17 8006 559 21%
c - 254.94 37 23 125 92709 2362592 70141 87% 18 8006 559 21%
c - 260.21 37 23 126 92709 2400392 71248 88% 17 8006 559 21%
c W 262.85 37 22 126 92709 2415124 83656 88% 17 8006 559 21%
c - 266.05 37 22 127 92716 2438493 72513 88% 17 8006 559 21%
c - 271.95 44 23 128 92734 2476893 73428 88% 18 8006 559 21%
c p 272.40 44 23 128 92737 2480026 75842 88% 18 8006 559 21%
c I 272.96 44 23 128 92738 2485126 80248 88% 18 8006 559 21%
c - 276.67 44 25 129 92744 2515593 75151 88% 18 8006 559 21%
c 
c  seconds    reductions         redundant  irredundant
c          MB       restarts            trail     variables
c           level         conflicts         glue      remaining
c 
c - 282.61 44 27 130 92762 2554593 74760 88% 19 8006 559 21%
c B 282.81 44 27 130 92762 2556127 75778 88% 19 8006 559 21%
c - 288.00 26 26 131 92772 2593895 73054 87% 18 8006 559 21%
c s 288.28 27 26 131 92772 2593895 72951 87% 18 8006 559 21%
c w 288.57 27 26 131 92772 2593895 72914 87% 18 8006 559 21%
c ] 293.79 27 25 131 92774 2628127 100863 87% 18 8006 559 21%
c 1 293.79 27 25 131 92774 2628127 100863 87% 18 8006 559 21%
c 
c --- [ result ] -------------------------------------------------------------
c 
s SATISFIABLE
v -1 -2 -3 -4 -5 -6 -7 -8 -9 -10 11 12 -13 -14 -15 16 -17 18 -19 -20 21 -22
v -23 24 -25 -26 -27 -28 -29 30 -31 -32 -33 -34 -35 36 -37 -38 -39 -40 -41 -42
v -43 -44 -45 -46 47 -48 -49 -50 -51 -52 -53 -54 -55 56 -57 -58 -59 -60 -61
v -62 -63 64 -65 -66 -67 -68 69 70 71 72 73 -74 -75 -76 77 -78 -79 -80 -81 -82
v -83 -84 85 -86 -87 -88 89 -90 -91 -92 -93 -94 -95 96 -97 -98 -99 100 -101
v -102 -103 -104 -105 -106 -107 -108 -109 -110 111 -112 -113 -114 -115 -116
v -117 118 -119 -120 -121 122 123 -124 -125 -126 -127 -128 -129 -130 131 -132
v -133 -134 -135 -136 -137 -138 -139 140 141 -142 -143 -144 -145 -146 -147 148
v -149 -150 -151 -152 153 -154 -155 156 -157 -158 -159 -160 161 162 -163 -164
v -165 -166 -167 168 -169 -170 -171 -172 173 -174 -175 -176 -177 -178 -179
v -180 -181 -182 -183 -184 -185 -186 -187 -188 -189 -190 -191 -192 -193 -194
v -195 -196 -197 198 -199 -200 201 -202 -203 -204 -205 -206 -207 -208 -209
v -210 -211 -212 -213 -214 -215 -216 -217 218 -219 -220 -221 -222 -223 -224
v -225 -226 -227 -228 -229 -230 231 232 233 234 -235 -236 -237 -238 -239 240
v -241 -242 -243 -244 -245 -246 -247 -248 -249 -250 -251 -252 -253 254 -255
v 256 -257 258 259 -260 261 -262 263 264 265 266 -267 -268 269 -270 -271 -272
v -273 274 -275 276 -277 -278 279 280 281 -282 -283 -284 -285 -286 -287 -288
v -289 290 291 292 -293 294 295 -296 -297 -298 -299 -300 -301 302 303 304 -305
v -306 307 -308 309 310 -311 -312 -313 -314 315 -316 317 318 -319 320 -321
v -322 -323 324 -325 -326 -327 328 329 330 331 332 333 334 335 336 337 338 339
v 340 341 342 343 344 345 346 347 348 349 350 351 352 353 354 355 356 357 358
v 359 360 361 362 363 364 365 366 367 368 369 370 371 372 373 374 375 376 377
v 378 379 380 381 382 383 384 385 386 387 388 389 390 391 392 393 394 395 396
v 397 398 -399 -400 -401 -402 -403 404 405 406 407 408 409 410 411 412 413 414
v 415 416 417 418 419 420 421 422 423 424 425 426 427 428 429 430 431 432 433
v 434 435 436 437 438 439 440 441 442 443 444 445 446 447 448 449 450 451 452
v 453 454 455 456 457 458 459 460 461 462 463 464 465 466 467 468 469 470 471
v 472 -473 -474 -475 -476 -477 -478 -479 480 481 482 483 484 485 486 487 488
v 489 490 491 492 493 494 495 496 497 498 499 500 501 502 503 504 505 506 507
v 508 509 510 511 512 513 514 515 516 517 518 519 520 521 522 523 524 525 526
v 527 528 529 530 531 532 533 534 535 536 537 538 539 540 541 542 543 544 545
v 546 -547 -548 -549 -550 -551 -552 -553 -554 555 556 557 558 559 560 561 562
v 563 564 565 566 567 568 569 570 571 572 573 574 575 576 577 578 579 580 581
v 582 583 584 585 586 587 588 589 590 591 592 593 594 595 596 597 598 599 600
v 601 602 603 604 605 606 607 608 609 610 611 612 613 614 615 616 617 618 619
v 620 -621 -622 -623 -624 -625 -626 -627 -628 -629 -630 631 632 633 634 635
v 636 637 638 639 640 641 642 643 644 645 646 647 648 649 650 651 652 653 654
v 655 656 657 658 659 660 661 662 663 664 665 666 667 668 669 670 671 672 673
v 674 675 676 677 678 679 680 681 682 683 684 685 686 687 688 689 690 691 692
v 693 694 -695 -696 -697 -698 -699 -700 -701 -702 -703 -704 -705 -706 707 708
v 709 710 711 712 713 714 715 716 717 718 719 720 721 722 723 724 725 726 727
v 728 729 730 731 732 733 734 735 736 737 738 739 740 741 742 743 744 745 746
v 747 748 749 750 751 752 753 754 755 756 757 758 759 760 761 762 763 764 765
v 766 767 768 -769 -770 -771 -772 -773 -774 -775 -776 -777 -778 -779 -780 -781
v 782 783 784 785 786 787 788 789 790 791 792 793 794 795 796 797 798 799 800
v 801 802 803 804 805 806 807 808 809 810 811 812 813 814 815 816 817 818 819
v 820 821 822 823 824 825 826 827 828 829 830 831 832 833 834 835 836 837 838
v 839 840 841 842 -843 -844 -845 -846 -847 -848 -849 -850 -851 -852 -853 -854
v -855 -856 857 858 859 860 861 862 863 864 865 866 867 868 869 870 871 872
v 873 874 875 876 877 878 879 880 881 882 883 884 885 886 887 888 889 890 891
v 892 893 894 895 896 897 898 899 900 901 902 903 904 905 906 907 908 909 910
v 911 912 913 914 915 916 -917 -918 -919 -920 -921 -922 -923 -924 -925 -926
v -927 -928 -929 -930 -931 932 933 934 935 936 937 938 939 940 941 942 943 944
v 945 946 947 948 949 950 951 952 953 954 955 956 957 958 959 960 961 962 963
v 964 965 966 967 968 969 970 971 972 973 974 975 976 977 978 979 980 981 982
v 983 984 985 986 987 988 989 990 -991 -992 -993 -994 -995 -996 -997 -998 -999
v -1000 -1001 -1002 -1003 -1004 -1005 -1006 -1007 -1008 1009 1010 1011 1012
v 1013 1014 1015 1016 1017 1018 1019 1020 1021 1022 1023 1024 1025 1026 1027
v 1028 1029 1030 1031 1032 1033 1034 1035 1036 1037 1038 1039 1040 1041 1042
v 1043 1044 1045 1046 1047 1048 1049 1050 1051 1052 1053 1054 1055 1056 1057
v 1058 1059 1060 1061 1062 1063 1064 -1065 -1066 -1067 -1068 -1069 -1070 -1071
v -1072 -1073 -1074 -1075 -1076 -1077 -1078 -1079 -1080 -1081 -1082 -1083
v -1084 -1085 -1086 -1087 1088 1089 1090 1091 1092 1093 1094 1095 1096 1097
v 1098 1099 1100 1101 1102 1103 1104 1105 1106 1107 1108 1109 1110 1111 1112
v 1113 1114 1115 1116 1117 1118 1119 1120 1121 1122 1123 1124 1125 1126 1127
v 1128 1129 1130 1131 1132 1133 1134 1135 1136 1137 1138 -1139 -1140 -1141
v -1142 -1143 -1144 -1145 -1146 -1147 -1148 -1149 -1150 -1151 -1152 -1153
v -1154 -1155 -1156 -1157 -1158 -1159 -1160 -1161 -1162 -1163 1164 1165 1166
v 1167 1168 1169 1170 1171 1172 1173 1174 1175 1176 1177 1178 1179 1180 1181
v 1182 1183 1184 1185 1186 1187 1188 1189 1190 1191 1192 1193 1194 1195 1196
v 1197 1198 1199 1200 1201 1202 1203 1204 1205 1206 1207 1208 1209 1210 1211
v 1212 -1213 -1214 -1215 -1216 -1217 -1218 -1219 -1220 -1221 -1222 -1223 -1224
v -1225 -1226 -1227 -1228 -1229 -1230 -1231 -1232 -1233 -1234 -1235 -1236
v -1237 -1238 -1239 -1240 1241 1242 1243 1244 1245 1246 1247 1248 1249 1250
v 1251 1252 1253 1254 1255 1256 1257 1258 1259 1260 1261 1262 1263 1264 1265
v 1266 1267 1268 1269 1270 1271 1272 1273 1274 1275 1276 1277 1278 1279 1280
v 1281 1282 1283 1284 1285 1286 -1287 -1288 -1289 -1290 -1291 -1292 -1293
v -1294 -1295 -1296 -1297 -1298 -1299 -1300 -1301 -1302 -1303 -1304 -1305
v -1306 -1307 -1308 -1309 -1310 -1311 -1312 -1313 -1314 -1315 1316 1317 1318
v 1319 1320 1321 1322 1323 1324 1325 1326 1327 1328 1329 1330 1331 1332 1333
v 1334 1335 1336 1337 1338 1339 1340 1341 1342 1343 1344 1345 1346 1347 1348
v 1349 1350 1351 1352 1353 1354 1355 1356 1357 1358 1359 1360 -1361 -1362
v -1363 -1364 -1365 -1366 -1367 -1368 -1369 -1370 -1371 -1372 -1373 -1374
v -1375 -1376 -1377 -1378 -1379 -1380 -1381 -1382 -1383 -1384 -1385 -1386
v -1387 -1388 -1389 -1390 1391 1392 1393 1394 1395 1396 1397 1398 1399 1400
v 1401 1402 1403 1404 1405 1406 1407 1408 1409 1410 1411 1412 1413 1414 1415
v 1416 1417 1418 1419 1420 1421 1422 1423 1424 1425 1426 1427 1428 1429 1430
v 1431 1432 1433 1434 -1435 -1436 -1437 -1438 -1439 -1440 -1441 -1442 -1443
v -1444 -1445 -1446 -1447 -1448 -1449 -1450 -1451 -1452 -1453 -1454 -1455
v -1456 -1457 -1458 -1459 -1460 -1461 -1462 -1463 -1464 -1465 -1466 -1467
v -1468 -1469 -1470 -1471 -1472 -1473 1474 1475 1476 1477 1478 1479 1480 1481
v 1482 1483 1484 1485 1486 1487 1488 1489 1490 1491 1492 1493 1494 1495 1496
v 1497 1498 1499 1500 1501 1502 1503 1504 1505 1506 1507 1508 -1509 -1510
v -1511 -1512 -1513 -1514 -1515 -1516 -1517 -1518 -1519 -1520 -1521 -1522
v -1523 -1524 -1525 -1526 -1527 -1528 -1529 -1530 -1531 -1532 -1533 -1534
v -1535 -1536 -1537 -1538 -1539 -1540 -1541 -1542 -1543 -1544 -1545 -1546
v -1547 -1548 1549 1550 1551 1552 1553 1554 1555 1556 1557 1558 1559 1560 1561
v 1562 1563 1564 1565 1566 1567 1568 1569 1570 1571 1572 1573 1574 1575 1576
v 1577 1578 1579 1580 1581 1582 -1583 -1584 -1585 -1586 -1587 -1588 -1589
v -1590 -1591 -1592 -1593 -1594 -1595 -1596 -1597 -1598 -1599 -1600 -1601
v -1602 -1603 -1604 -1605 -1606 -1607 -1608 -1609 -1610 -1611 -1612 -1613
v -1614 -1615 -1616 -1617 -1618 -1619 -1620 -1621 -1622 -1623 1624 1625 1626
v 1627 1628 1629 1630 1631 1632 1633 1634 1635 1636 1637 1638 1639 1640 1641
v 1642 1643 1644 1645 1646 1647 1648 1649 1650 1651 1652 1653 1654 1655 1656
v -1657 -1658 -1659 -1660 -1661 -1662 -1663 -1664 -1665 -1666 -1667 -1668
v -1669 -1670 -1671 -1672 -1673 -1674 -1675 -1676 -1677 -1678 -1679 -1680
v -1681 -1682 -1683 -1684 -1685 -1686 -1687 -1688 -1689 -1690 -1691 -1692
v -1693 -1694 -1695 -1696 -1697 -1698 -1699 1700 1701 1702 1703 1704 1705 1706
v 1707 1708 1709 1710 1711 1712 1713 1714 1715 1716 1717 1718 1719 1720 1721
v 1722 1723 1724 1725 1726 1727 1728 1729 1730 -1731 -1732 -1733 -1734 -1735
v -1736 -1737 -1738 -1739 -1740 -1741 -1742 -1743 -1744 -1745 -1746 -1747
v -1748 -1749 -1750 -1751 -1752 -1753 -1754 -1755 -1756 -1757 -1758 -1759
v -1760 -1761 -1762 -1763 -1764 -1765 -1766 -1767 -1768 -1769 -1770 -1771
v -1772 -1773 -1774 1775 1776 1777 1778 1779 1780 1781 1782 1783 1784 1785
v 1786 1787 1788 1789 1790 1791 1792 1793 1794 1795 1796 1797 1798 1799 1800
v 1801 1802 1803 1804 -1805 -1806 -1807 -1808 -1809 -1810 -1811 -1812 -1813
v -1814 -1815 -1816 -1817 -1818 -1819 -1820 -1821 -1822 -1823 -1824 -1825
v -1826 -1827 -1828 -1829 -1830 -1831 -1832 -1833 -1834 -1835 -1836 -1837
v -1838 -1839 -1840 -1841 -1842 -1843 -1844 -1845 -1846 -1847 -1848 -1849
v -1850 -1851 -1852 -1853 -1854 -1855 1856 1857 1858 1859 1860 1861 1862 1863
v 1864 1865 1866 1867 1868 1869 1870 1871 1872 1873 1874 1875 1876 1877 1878
v -1879 -1880 -1881 -1882 -1883 -1884 -1885 -1886 -1887 -1888 -1889 -1890
v -1891 -1892 -1893 -1894 -1895 -1896 -1897 -1898 -1899 -1900 -1901 -1902
v -1903 -1904 -1905 -1906 -1907 -1908 -1909 -1910 -1911 -1912 -1913 -1914
v -1915 -1916 -1917 -1918 -1919 -1920 -1921 -1922 -1923 -1924 -1925 -1926
v -1927 -1928 -1929 -1930 1931 1932 1933 1934 1935 1936 1937 1938 1939 1940
v 1941 1942 1943 1944 1945 1946 1947 1948 1949 1950 1951 1952 -1953 -1954
v -1955 -1956 -1957 -1958 -1959 -1960 -1961 -1962 -1963 -1964 -1965 -1966
v -1967 -1968 -1969 -1970 -1971 -1972 -1973 -1974 -1975 -1976 -1977 -1978
v -1979 -1980 -1981 -1982 -1983 -1984 -1985 -1986 -1987 -1988 -1989 -1990
v -1991 -1992 -1993 -1994 -1995 -1996 -1997 -1998 -1999 -2000 -2001 -2002
v -2003 -2004 -2005 2006 2007 2008 2009 2010 2011 2012 2013 2014 2015 2016
v 2017 2018 2019 2020 2021 2022 2023 2024 2025 2026 -2027 -2028 -2029 -2030
v -2031 -2032 -2033 -2034 -2035 -2036 -2037 -2038 -2039 -2040 -2041 -2042
v -2043 -2044 -2045 -2046 -2047 -2048 -2049 -2050 -2051 -2052 -2053 -2054
v -2055 -2056 -2057 -2058 -2059 -2060 -2061 -2062 -2063 -2064 -2065 -2066
v -2067 -2068 -2069 -2070 -2071 -2072 -2073 -2074 -2075 -2076 -2077 -2078
v -2079 -2080 -2081 -2082 2083 2084 2085 2086 2087 2088 2089 2090 2091 2092
v 2093 2094 2095 2096 2097 2098 2099 2100 -2101 -2102 -2103 -2104 -2105 -2106
v -2107 -2108 -2109 -2110 -2111 -2112 -2113 -2114 -2115 -2116 -2117 -2118
v -2119 -2120 -2121 -2122 -2123 -2124 -2125 -2126 -2127 -2128 -2129 -2130
v -2131 -2132 -2133 -2134 -2135 -2136 -2137 -2138 -2139 -2140 -2141 -2142
v -2143 -2144 -2145 -2146 -2147 -2148 -2149 -2150 -2151 -2152 -2153 -2154
v -2155 -2156 -2157 -2158 2159 2160 2161 2162 2163 2164 2165 2166 2167 2168
v 2169 2170 2171 2172 2173 2174 -2175 -2176 -2177 -2178 -2179 -2180 -2181
v -2182 -2183 -2184 -2185 -2186 -2187 -2188 -2189 -2190 -2191 -2192 -2193
v -2194 -2195 -2196 -2197 -2198 -2199 -2200 -2201 -2202 -2203 -2204 -2205
v -2206 -2207 -2208 -2209 -2210 -2211 -2212 -2213 -2214 -2215 -2216 -2217
v -2218 -2219 -2220 -2221 -2222 -2223 -2224 -2225 -2226 -2227 -2228 -2229
v -2230 -2231 -2232 -2233 2234 2235 2236 2237 2238 2239 2240 2241 2242 2243
v 2244 2245 2246 2247 2248 -2249 -2250 -2251 -2252 -2253 -2254 -2255 -2256
v -2257 -2258 -2259 -2260 -2261 -2262 -2263 -2264 -2265 -2266 -2267 -2268
v -2269 -2270 -2271 -2272 -2273 -2274 -2275 -2276 -2277 -2278 -2279 -2280
v -2281 -2282 -2283 -2284 -2285 -2286 -2287 -2288 -2289 -2290 -2291 -2292
v -2293 -2294 -2295 -2296 -2297 -2298 -2299 -2300 -2301 -2302 -2303 -2304
v -2305 -2306 -2307 -2308 -2309 -2310 -2311 -2312 2313 2314 2315 2316 2317
v 2318 2319 2320 2321 2322 -2323 -2324 -2325 -2326 -2327 -2328 -2329 -2330
v -2331 -2332 -2333 -2334 -2335 -2336 -2337 -2338 -2339 -2340 -2341 -2342
v -2343 -2344 -2345 -2346 -2347 -2348 -2349 -2350 -2351 -2352 -2353 -2354
v -2355 -2356 -2357 -2358 -2359 -2360 -2361 -2362 -2363 -2364 -2365 -2366
v -2367 -2368 -2369 -2370 -2371 -2372 -2373 -2374 -2375 -2376 -2377 -2378
v -2379 -2380 -2381 -2382 -2383 -2384 -2385 -2386 -2387 -2388 2389 2390 2391
v 2392 2393 2394 2395 2396 -2397 -2398 -2399 -2400 -2401 -2402 -2403 -2404
v -2405 -2406 -2407 -2408 -2409 -2410 -2411 -2412 -2413 -2414 -2415 -2416
v -2417 -2418 -2419 -2420 -2421 -2422 -2423 -2424 -2425 -2426 -2427 -2428
v -2429 -2430 -2431 -2432 -2433 -2434 -2435 -2436 -2437 -2438 -2439 -2440
v -2441 -2442 -2443 -2444 -2445 -2446 -2447 -2448 -2449 -2450 -2451 -2452
v -2453 -2454 -2455 -2456 -2457 -2458 -2459 -2460 -2461 -2462 -2463 2464 2465
v 2466 2467 2468 2469 2470 -2471 -2472 -2473 -2474 -2475 -2476 -2477 -2478
v -2479 -2480 -2481 -2482 -2483 -2484 -2485 -2486 -2487 -2488 -2489 -2490
v -2491 -2492 -2493 -2494 -2495 -2496 -2497 -2498 -2499 -2500 -2501 -2502
v -2503 -2504 -2505 -2506 -2507 -2508 -2509 -2510 -2511 -2512 -2513 -2514
v -2515 -2516 -2517 -2518 -2519 -2520 -2521 -2522 -2523 -2524 -2525 -2526
v -2527 -2528 -2529 -2530 -2531 -2532 -2533 -2534 -2535 -2536 -2537 -2538
v -2539 2540 2541 2542 2543 2544 -2545 -2546 -2547 -2548 -2549 -2550 -2551
v -2552 -2553 -2554 -2555 -2556 -2557 -2558 -2559 -2560 -2561 -2562 -2563
v -2564 -2565 -2566 -2567 -2568 -2569 -2570 -2571 -2572 -2573 -2574 -2575
v -2576 -2577 -2578 -2579 -2580 -2581 -2582 -2583 -2584 -2585 -2586 -2587
v -2588 -2589 -2590 -2591 -2592 -2593 -2594 -2595 -2596 -2597 -2598 -2599
v -2600 -2601 -2602 -2603 -2604 -2605 -2606 -2607 -2608 -2609 -2610 -2611
v -2612 -2613 -2614 -2615 -2616 -2617 2618 -2619 -2620 -2621 -2622 -2623 -2624
v -2625 -2626 -2627 -2628 -2629 -2630 -2631 -2632 -2633 -2634 -2635 -2636
v -2637 -2638 -2639 -2640 -2641 -2642 -2643 -2644 -2645 -2646 -2647 -2648
v -2649 -2650 -2651 -2652 -2653 -2654 -2655 -2656 -2657 -2658 -2659 -2660
v -2661 -2662 -2663 -2664 -2665 -2666 -2667 -2668 -2669 -2670 -2671 -2672
v -2673 -2674 -2675 -2676 -2677 -2678 -2679 -2680 -2681 -2682 -2683 -2684
v -2685 -2686 -2687 -2688 -2689 -2690 -2691 -2692 0
c 
c --- [ run-time profiling ] -------------------------------------------------
c 
c process time taken by individual solving procedures
c (percentage relative to process time for solving)
c 
c       288.18   98.09% search
c       150.16   51.11% unstable
c       132.60   45.14% stable
c         5.60    1.91% simplify
c         5.42    1.85% walk
c         2.81    0.96% subsume
c         1.31    0.45% vivify
c         0.68    0.23% probe
c         0.22    0.08% ternary
c         0.11    0.04% elim
c         0.00    0.00% parse
c         0.00    0.00% lucky
c   =================================
c       293.78  100.00% solve
c 
c last line shows process time for solving
c (percentage relative to total process time)
c 
c --- [ statistics ] ---------------------------------------------------------
c 
c chronological:            500900        19.06 %  of conflicts
c conflicts:               2628127      8945.82    per second
c decisions:               4514122     15365.51    per second
c eliminated:                 2051        76.19 %  of all variables
c fixed:                        82         3.05 %  of all variables
c learned:                 2581657        98.23 %  per conflict
c learned_lits:          103764585       100.00 %  learned literals
c minimized:                     0         0.00 %  learned literals
c shrunken:               33043158        31.84 %  learned literals
c minishrunken:           11464807        11.05 %  learned literals
c propagations:          210710384         0.72 M  per second
c reduced:                 2143473        81.56 %  per conflict
c rephased:                     72     36501.76    interval
c restarts:                  92774        28.33    interval
c stabilizing:                   6        48.06 %  of conflicts
c subsumed:                 322374         6.20 %  of all clauses
c strengthened:              14078         0.27 %  of all clauses
c ternary:                      23         0.02 %  of resolved
c vivified:                    315         0.01 %  of all clauses
c walked:                       23    114266.39    interval
c weakened:                   8790         2.90    average size
c 
c seconds are measured in process time for solving
c 
c --- [ resources ] ----------------------------------------------------------
c 
c total process time since initialization:       293.79    seconds
c total real time since initialization:          293.85    seconds
c maximum resident set size of process:           43.52    MB
c 
c --- [ shutting down ] ------------------------------------------------------
c 
c exit 10
